NAME : portcgen-23-22
COMMENT : portcgen N=23, seed=22
TYPE : TSP
DIMENSION : 23
EDGE_WEIGHT_TYPE : EUC_2D
NODE_COORD_SECTION
1 18858 -160237
2 -153041 -22855
3 71521 363747
4 -45468 -73186
5 11425 335365
6 -145681 47724
7 135524 -168680
8 123842 -107553
9 -110654 430351
10 332457 16871
11 -157166 343075
12 -62722 -224815
13 339275 170417
14 -222860 -112330
15 133126 121211
16 122018 31022
17 203346 106740
18 234817 63723
19 16990 137597
20 35629 -292127
21 -221698 -31014
22 -273371 -405936
23 -7173 93286
